rehearsal = [[0,1,0,1,0,0,0,1,1,1], [1,1,0,1,0,1,1,1,1,0], [0,1,0,1,1,0,0,1,0,0], [0,0,0,0,1,1,1,0,0,1], [1,0,1,0,0,0,0,1,1,1], [1,1,0,1,1,0,0,1,0,1], [1,0,1,1,1,1,0,1,1,1], [1,1,1,0,1,1,1,1,1,1], [1,1,1,0,1,1,0,0,1,1], [1,1,0,0,1,1,0,1,1,0]];
permutations = [3,1,9,8,2,10,4,5,6,7];